\ LP format - for model browsing. Use MPS format to capture full model detail.
Minimize
  C73(1)
Subject To
 c0: B0(12) + B1(16) = 1
 c1: B2(12) + B3(16) = 1
 c2: B4(14) + B5(11) = 1
 c3: B6(11) + B7(11) = 1
 c4: B8(12) + B9(17) = 1
 c5: B10(16) + B11(9) = 1
 c6: B12(13) + B13(15) = 1
 c7: B14(17) + B15(12) = 1
 c8: B16(14) + B17(10) = 1
 c9: - 1e+09 B0(12) + C55(12) <= 0
 c10: - 1e+09 B1(16) + C56(16) <= 0
 c11: - 1e+09 B2(12) + C57(14) <= 0
 c12: - 1e+09 B3(16) + C58(18) <= 0
 c13: - 1e+09 B4(14) + C59(15) <= 0
 c14: - 1e+09 B5(11) + C60(13) <= 0
 c15: - 1e+09 B6(11) + C61(11) <= 0
 c16: - 1e+09 B7(11) + C62(11) <= 0
 c17: - 1e+09 B8(12) + C63(13) <= 0
 c18: - 1e+09 B9(17) + C64(19) <= 0
 c19: - 1e+09 B10(16) + C65(17) <= 0
 c20: - 1e+09 B11(9) + C66(11) <= 0
 c21: - 1e+09 B12(13) + C67(13) <= 0
 c22: - 1e+09 B13(15) + C68(15) <= 0
 c23: - 1e+09 B14(17) + C69(18) <= 0
 c24: - 1e+09 B15(12) + C70(14) <= 0
 c25: - 1e+09 B16(14) + C71(16) <= 0
 c26: - 1e+09 B17(10) + C72(12) <= 0
 c27: - 17 B0(12) - 25 B1(16) - C55(12) - C56(16) + C57(14) + C58(18) >= 0
 c28: - 1.000000017e+09 B0(12) - 25 B1(16) - 1e+09 B2(12) - C55(12)
   - C56(16) + C57(14) + C58(18) >= -1.999999993e+09
 c29: - 17 B0(12) - 1.000000025e+09 B1(16) - 1e+09 B3(16) - C55(12)
   - C56(16) + C57(14) + C58(18) >= -1.999999995e+09
 c30: - 40 B2(12) - 30 B3(16) - C57(14) - C58(18) + C59(15) + C60(13) >= 0
 c31: - 40 B2(12) - 1.00000003e+09 B3(16) - 1e+09 B4(14) - C57(14)
   - C58(18) + C59(15) + C60(13) >= -1.999999994e+09
 c32: - 30 B6(11) - 50 B7(11) - C61(11) - C62(11) + C63(13) + C64(19) >= 0
 c33: - 1.00000003e+09 B6(11) - 50 B7(11) - 1e+09 B8(12) - C61(11)
   - C62(11) + C63(13) + C64(19) >= -1.999999993e+09
 c34: - 50 B8(12) - 60 B9(17) - C63(13) - C64(19) + C65(17) + C66(11) >= 0
 c35: - 50 B8(12) - 1.00000006e+09 B9(17) - 1e+09 B10(16) - C63(13)
   - C64(19) + C65(17) + C66(11) >= -1.999999995e+09
 c36: - 50 B12(13) - 60 B13(15) - C67(13) - C68(15) + C69(18) + C70(14)
   >= 0
 c37: - 50 B12(13) - 1.00000006e+09 B13(15) - 1e+09 B14(17) - C67(13)
   - C68(15) + C69(18) + C70(14) >= -1.999999993e+09
 c38: - 70 B14(17) - 80 B15(12) - C69(18) - C70(14) + C71(16) + C72(12)
   >= 0
 c39: - 1.00000007e+09 B14(17) - 80 B15(12) - 1e+09 B16(14) - C69(18)
   - C70(14) + C71(16) + C72(12) >= -1.999999994e+09
 c40: - 70 B14(17) - 1.00000008e+09 B15(12) - 1e+09 B17(10) - C69(18)
   - C70(14) + C71(16) + C72(12) >= -1.999999993e+09
 c41: - 1e+09 B0(12) - 1e+09 B6(11) - 1e+09 B18(2) + C55(12) - C61(11)
   >= -2.999999964e+09
 c42: - 1e+09 B0(12) - 1e+09 B6(11) + 1e+09 B18(2) - C55(12) + C61(11)
   >= -1.999999978e+09
 c43: - 1e+09 B0(12) - 1e+09 B8(12) - 1e+09 B19(2) + C55(12) - C63(13)
   >= -2.999999945e+09
 c44: - 1e+09 B0(12) - 1e+09 B8(12) + 1e+09 B19(2) - C55(12) + C63(13)
   >= -1.999999979e+09
 c45: - 1e+09 B1(16) - 1e+09 B9(17) - 1e+09 B20(2) + C56(16) - C64(19)
   >= -2.999999934e+09
 c46: - 1e+09 B1(16) - 1e+09 B9(17) + 1e+09 B20(2) - C56(16) + C64(19)
   >= -1.999999969e+09
 c47: - 1e+09 B1(16) - 1e+09 B10(16) - 1e+09 B21(2) + C56(16) - C65(17)
   >= -2.999999924e+09
 c48: - 1e+09 B1(16) - 1e+09 B10(16) + 1e+09 B21(2) - C56(16) + C65(17)
   >= -1.999999969e+09
 c49: - 1e+09 B0(12) - 1e+09 B12(13) - 1e+09 B22(2) + C55(12) - C67(13)
   >= -2.999999945e+09
 c50: - 1e+09 B0(12) - 1e+09 B12(13) + 1e+09 B22(2) - C55(12) + C67(13)
   >= -1.999999978e+09
 c51: - 1e+09 B1(16) - 1e+09 B13(15) - 1e+09 B23(2) + C56(16) - C68(15)
   >= -2.999999933e+09
 c52: - 1e+09 B1(16) - 1e+09 B13(15) + 1e+09 B23(2) - C56(16) + C68(15)
   >= -1.999999969e+09
 c53: - 1e+09 B1(16) - 1e+09 B14(17) - 1e+09 B24(2) + C56(16) - C69(18)
   >= -2.999999925e+09
 c54: - 1e+09 B1(16) - 1e+09 B14(17) + 1e+09 B24(2) - C56(16) + C69(18)
   >= -1.99999997e+09
 c55: - 1e+09 B1(16) - 1e+09 B16(14) - 1e+09 B25(2) + C56(16) - C71(16)
   >= -2.999999903e+09
 c56: - 1e+09 B1(16) - 1e+09 B16(14) + 1e+09 B25(2) - C56(16) + C71(16)
   >= -1.999999968e+09
 c57: - 1e+09 B2(12) - 1e+09 B6(11) - 1e+09 B26(2) + C57(14) - C61(11)
   >= -2.999999964e+09
 c58: - 1e+09 B2(12) - 1e+09 B6(11) + 1e+09 B26(2) - C57(14) + C61(11)
   >= -1.999999955e+09
 c59: - 1e+09 B2(12) - 1e+09 B8(12) - 1e+09 B27(2) + C57(14) - C63(13)
   >= -2.999999944e+09
 c60: - 1e+09 B2(12) - 1e+09 B8(12) + 1e+09 B27(2) - C57(14) + C63(13)
   >= -1.999999954e+09
 c61: - 1e+09 B3(16) - 1e+09 B9(17) - 1e+09 B28(2) + C58(18) - C64(19)
   >= -2.999999934e+09
 c62: - 1e+09 B3(16) - 1e+09 B9(17) + 1e+09 B28(2) - C58(18) + C64(19)
   >= -1.999999965e+09
 c63: - 1e+09 B3(16) - 1e+09 B10(16) - 1e+09 B29(2) + C58(18) - C65(17)
   >= -2.999999926e+09
 c64: - 1e+09 B3(16) - 1e+09 B10(16) + 1e+09 B29(2) - C58(18) + C65(17)
   >= -1.999999966e+09
 c65: - 1e+09 B2(12) - 1e+09 B12(13) - 1e+09 B30(2) + C57(14) - C67(13)
   >= -2.999999944e+09
 c66: - 1e+09 B2(12) - 1e+09 B12(13) + 1e+09 B30(2) - C57(14) + C67(13)
   >= -1.999999954e+09
 c67: - 1e+09 B3(16) - 1e+09 B13(15) - 1e+09 B31(2) + C58(18) - C68(15)
   >= -2.999999934e+09
 c68: - 1e+09 B3(16) - 1e+09 B13(15) + 1e+09 B31(2) - C58(18) + C68(15)
   >= -1.999999963e+09
 c69: - 1e+09 B3(16) - 1e+09 B14(17) - 1e+09 B32(2) + C58(18) - C69(18)
   >= -2.999999925e+09
 c70: - 1e+09 B3(16) - 1e+09 B14(17) + 1e+09 B32(2) - C58(18) + C69(18)
   >= -1.999999964e+09
 c71: - 1e+09 B3(16) - 1e+09 B16(14) - 1e+09 B33(2) + C58(18) - C71(16)
   >= -2.999999905e+09
 c72: - 1e+09 B3(16) - 1e+09 B16(14) + 1e+09 B33(2) - C58(18) + C71(16)
   >= -1.999999966e+09
 c73: - 1e+09 B5(11) - 1e+09 B7(11) - 1e+09 B34(2) + C60(13) - C62(11)
   >= -2.999999945e+09
 c74: - 1e+09 B5(11) - 1e+09 B7(11) + 1e+09 B34(2) - C60(13) + C62(11)
   >= -1.999999933e+09
 c75: - 1e+09 B4(14) - 1e+09 B9(17) - 1e+09 B35(2) + C59(15) - C64(19)
   >= -2.999999934e+09
 c76: - 1e+09 B4(14) - 1e+09 B9(17) + 1e+09 B35(2) - C59(15) + C64(19)
   >= -1.999999944e+09
 c77: - 1e+09 B4(14) - 1e+09 B10(16) - 1e+09 B36(2) + C59(15) - C65(17)
   >= -2.999999924e+09
 c78: - 1e+09 B4(14) - 1e+09 B10(16) + 1e+09 B36(2) - C59(15) + C65(17)
   >= -1.999999944e+09
 c79: - 1e+09 B5(11) - 1e+09 B11(9) - 1e+09 B37(2) + C60(13) - C66(11)
   >= -2.999999934e+09
 c80: - 1e+09 B5(11) - 1e+09 B11(9) + 1e+09 B37(2) - C60(13) + C66(11)
   >= -1.999999935e+09
 c81: - 1e+09 B4(14) - 1e+09 B13(15) - 1e+09 B38(2) + C59(15) - C68(15)
   >= -2.999999936e+09
 c82: - 1e+09 B4(14) - 1e+09 B13(15) + 1e+09 B38(2) - C59(15) + C68(15)
   >= -1.999999943e+09
 c83: - 1e+09 B4(14) - 1e+09 B14(17) - 1e+09 B39(2) + C59(15) - C69(18)
   >= -2.999999924e+09
 c84: - 1e+09 B4(14) - 1e+09 B14(17) + 1e+09 B39(2) - C59(15) + C69(18)
   >= -1.999999945e+09
 c85: - 1e+09 B5(11) - 1e+09 B15(12) - 1e+09 B40(2) + C60(13) - C70(14)
   >= -2.999999913e+09
 c86: - 1e+09 B5(11) - 1e+09 B15(12) + 1e+09 B40(2) - C60(13) + C70(14)
   >= -1.999999934e+09
 c87: - 1e+09 B4(14) - 1e+09 B16(14) - 1e+09 B41(2) + C59(15) - C71(16)
   >= -2.999999905e+09
 c88: - 1e+09 B4(14) - 1e+09 B16(14) + 1e+09 B41(2) - C59(15) + C71(16)
   >= -1.999999943e+09
 c89: - 1e+09 B5(11) - 1e+09 B17(10) - 1e+09 B42(2) + C60(13) - C72(12)
   >= -2.999999895e+09
 c90: - 1e+09 B5(11) - 1e+09 B17(10) + 1e+09 B42(2) - C60(13) + C72(12)
   >= -1.999999936e+09
 c91: - 1e+09 B6(11) - 1e+09 B12(13) - 1e+09 B43(2) + C61(11) - C67(13)
   >= -2.999999945e+09
 c92: - 1e+09 B6(11) - 1e+09 B12(13) + 1e+09 B43(2) - C61(11) + C67(13)
   >= -1.999999966e+09
 c93: - 1e+09 B7(11) - 1e+09 B15(12) - 1e+09 B44(2) + C62(11) - C70(14)
   >= -2.999999916e+09
 c94: - 1e+09 B7(11) - 1e+09 B15(12) + 1e+09 B44(2) - C62(11) + C70(14)
   >= -1.999999946e+09
 c95: - 1e+09 B7(11) - 1e+09 B17(10) - 1e+09 B45(2) + C62(11) - C72(12)
   >= -2.999999894e+09
 c96: - 1e+09 B7(11) - 1e+09 B17(10) + 1e+09 B45(2) - C62(11) + C72(12)
   >= -1.999999944e+09
 c97: - 1e+09 B8(12) - 1e+09 B12(13) - 1e+09 B46(2) + C63(13) - C67(13)
   >= -2.999999945e+09
 c98: - 1e+09 B8(12) - 1e+09 B12(13) + 1e+09 B46(2) - C63(13) + C67(13)
   >= -1.999999946e+09
 c99: - 1e+09 B9(17) - 1e+09 B13(15) - 1e+09 B47(2) + C64(19) - C68(15)
   >= -2.999999935e+09
 c100: - 1e+09 B9(17) - 1e+09 B13(15) + 1e+09 B47(2) - C64(19) + C68(15)
   >= -1.999999934e+09
 c101: - 1e+09 B9(17) - 1e+09 B14(17) - 1e+09 B48(2) + C64(19) - C69(18)
   >= -2.999999924e+09
 c102: - 1e+09 B9(17) - 1e+09 B14(17) + 1e+09 B48(2) - C64(19) + C69(18)
   >= -1.999999935e+09
 c103: - 1e+09 B9(17) - 1e+09 B16(14) - 1e+09 B49(2) + C64(19) - C71(16)
   >= -2.999999903e+09
 c104: - 1e+09 B9(17) - 1e+09 B16(14) + 1e+09 B49(2) - C64(19) + C71(16)
   >= -1.999999934e+09
 c105: - 1e+09 B10(16) - 1e+09 B13(15) - 1e+09 B50(2) + C65(17) - C68(15)
   >= -2.999999935e+09
 c106: - 1e+09 B10(16) - 1e+09 B13(15) + 1e+09 B50(2) - C65(17) + C68(15)
   >= -1.999999924e+09
 c107: - 1e+09 B10(16) - 1e+09 B14(17) - 1e+09 B51(2) + C65(17) - C69(18)
   >= -2.999999925e+09
 c108: - 1e+09 B10(16) - 1e+09 B14(17) + 1e+09 B51(2) - C65(17) + C69(18)
   >= -1.999999926e+09
 c109: - 1e+09 B11(9) - 1e+09 B15(12) - 1e+09 B52(2) + C66(11) - C70(14)
   >= -2.999999914e+09
 c110: - 1e+09 B11(9) - 1e+09 B15(12) + 1e+09 B52(2) - C66(11) + C70(14)
   >= -1.999999935e+09
 c111: - 1e+09 B10(16) - 1e+09 B16(14) - 1e+09 B53(2) + C65(17) - C71(16)
   >= -2.999999905e+09
 c112: - 1e+09 B10(16) - 1e+09 B16(14) + 1e+09 B53(2) - C65(17) + C71(16)
   >= -1.999999924e+09
 c113: - 1e+09 B11(9) - 1e+09 B17(10) - 1e+09 B54(2) + C66(11) - C72(12)
   >= -2.999999894e+09
 c114: - 1e+09 B11(9) - 1e+09 B17(10) + 1e+09 B54(2) - C66(11) + C72(12)
   >= -1.999999935e+09
 c115: C55(12) >= 0
 c116: C56(16) >= 0
 c117: C57(14) >= 0
 c118: C58(18) >= 0
 c119: C59(15) >= 0
 c120: C60(13) >= 0
 c121: C61(11) >= 0
 c122: C62(11) >= 0
 c123: C63(13) >= 0
 c124: C64(19) >= 0
 c125: C65(17) >= 0
 c126: C66(11) >= 0
 c127: C67(13) >= 0
 c128: C68(15) >= 0
 c129: C69(18) >= 0
 c130: C70(14) >= 0
 c131: C71(16) >= 0
 c132: C72(12) >= 0
 c133: - 17 B0(12) - 25 B1(16) - 40 B2(12) - 30 B3(16) - 50 B4(14)
   - 60 B5(11) - 30 B6(11) - 50 B7(11) - 50 B8(12) - 60 B9(17) - 70 B10(16)
   - 60 B11(9) - 50 B12(13) - 60 B13(15) - 70 B14(17) - 80 B15(12)
   - 90 B16(14) - 100 B17(10) - C55(12) - C56(16) - C57(14) - C58(18)
   - C59(15) - C60(13) - C61(11) - C62(11) - C63(13) - C64(19) - C65(17)
   - C66(11) - C67(13) - C68(15) - C69(18) - C70(14) - C71(16) - C72(12)
   + C73(1) = 0
Bounds
Binaries
 B0(12) B1(16) B2(12) B3(16) B4(14) B5(11) B6(11) B7(11) B8(12) B9(17)
 B10(16) B11(9) B12(13) B13(15) B14(17) B15(12) B16(14) B17(10) B18(2)
 B19(2) B20(2) B21(2) B22(2) B23(2) B24(2) B25(2) B26(2) B27(2) B28(2)
 B29(2) B30(2) B31(2) B32(2) B33(2) B34(2) B35(2) B36(2) B37(2) B38(2)
 B39(2) B40(2) B41(2) B42(2) B43(2) B44(2) B45(2) B46(2) B47(2) B48(2)
 B49(2) B50(2) B51(2) B52(2) B53(2) B54(2)
End
